Version identifier: 20.1.0.0 | 2020-11-10 | 9bedb6d68
CPXPARAM_RandomSeed                              1234
CPXPARAM_TimeLimit                               3600
Tried aggregator 2 times.
MIP Presolve eliminated 0 rows and 47 columns.
Aggregator did 15 substitutions.
Reduced MIP has 257 rows, 450 columns, and 1335 nonzeros.
Reduced MIP has 240 binaries, 210 generals, 0 SOSs, and 0 indicators.
Presolve time = 0.00 sec. (1.44 ticks)
Found incumbent of value 14105.000000 after 0.00 sec. (2.93 ticks)
Probing time = 0.00 sec. (1.41 ticks)
Tried aggregator 1 time.
Detecting symmetries...
Reduced MIP has 257 rows, 450 columns, and 1335 nonzeros.
Reduced MIP has 240 binaries, 210 generals, 0 SOSs, and 0 indicators.
Presolve time = 0.00 sec. (1.06 ticks)
Probing time = 0.00 sec. (1.39 ticks)
Clique table members: 47.
MIP emphasis: balance optimality and feasibility.
MIP search method: dynamic search.
Parallel mode: deterministic, using up to 8 threads.
Root relaxation solution time = 0.00 sec. (2.42 ticks)

        Nodes                                         Cuts/
   Node  Left     Objective  IInf  Best Integer    Best Bound    ItCnt     Gap

*     0+    0                        14105.0000        0.0000           100.00%
      0     0     6061.4803    33    14105.0000     6061.4803      194   57.03%
      0     0     6486.3688    64    14105.0000      Cuts: 58      265   54.01%
      0     0     6618.6615    59    14105.0000      Cuts: 48      336   53.08%
      0     0     6631.3571    47    14105.0000      Cuts: 16      373   52.99%
      0     0     6633.5663    60    14105.0000      Cuts: 21      402   52.97%
      0     0     6658.1978    58    14105.0000      Cuts: 16      479   52.80%
Detecting symmetries...
*     0+    0                         6859.0000     6658.1978             2.93%
      0     0        cutoff           6859.0000     6859.0000      528    0.00%
Elapsed time = 0.18 sec. (105.93 ticks, tree = 0.01 MB, solutions = 2)

Cover cuts applied:  9
Implied bound cuts applied:  22
Flow cuts applied:  29
Mixed integer rounding cuts applied:  1
Zero-half cuts applied:  4
Lift and project cuts applied:  6
Gomory fractional cuts applied:  3

Root node processing (before b&c):
  Real time             =    0.18 sec. (105.97 ticks)
Parallel b&c, 8 threads:
  Real time             =    0.00 sec. (0.00 ticks)
  Sync time (average)   =    0.00 sec.
  Wait time (average)   =    0.00 sec.
                          ------------
Total (root+branch&cut) =    0.18 sec. (105.97 ticks)
